p cnf 9 16
c Exactly one of them is Russian, while the other two are German
1 2 3 0
-1 -2 0
-1 -3 0
-2 -3 0
c Every Russian is a Spy
-1 7 0
-2 8 0
-3 9 0
c Stihl is as Russian as Moller is German
1 -5 0
-1 5 0
c Each person must be either Russian or German
1 4 0
-1 -4 0
2 5 0
-2 -5 0
3 6 0
-3 -6 0
c If Einstein is German, he cant be a Russian spy
-6 -9 0